60
2 1 7
3 0 4
3 1 5
4 1 6
4 3 8
5 0 7
5 2 7
5 3 9
5 4 3
6 0 2
6 2 4
6 3 7
6 4 5
7 2 4
7 3 8
7 6 3
8 0 7
8 1 6
8 3 3
8 7 2
9 0 1
9 1 3
9 2 2
9 3 1
9 6 2
9 7 2
10 1 2
10 6 4
10 7 5
10 8 1
11 1 3
11 3 2
11 4 5
11 5 4
11 7 4
12 0 7
12 2 5
12 3 1
12 4 2
12 5 8
12 8 6
12 9 4
12 11 9
13 4 8
13 5 6
13 6 9
13 7 1
13 9 8
14 5 1
14 7 1
14 9 6
14 11 9
14 12 8
14 13 3
15 3 2
15 4 9
15 6 3
15 7 6
15 8 7
15 11 1
15 12 8
15 13 7
16 3 1
16 4 8
16 5 6
16 6 4
16 11 4
16 12 5
16 13 3
16 15 9
17 0 7
17 1 2
17 3 2
17 7 3
17 8 1
17 12 9
17 14 5
17 15 4
17 16 9
18 0 9
18 1 8
18 3 9
18 4 5
18 7 4
18 9 5
18 10 8
18 12 7
18 13 3
18 14 7
19 1 1
19 4 4
19 7 3
19 9 1
19 13 5
19 14 3
19 15 8
19 16 1
19 17 9
20 0 4
20 1 6
20 4 2
20 6 8
20 7 3
20 9 7
20 12 9
20 15 3
20 16 3
20 17 7
20 19 3
21 0 5
21 3 6
21 5 7
21 7 2
21 8 3
21 10 9
21 12 3
21 16 3
21 17 1
21 20 6
22 2 3
22 3 4
22 4 9
22 5 1
22 7 5
22 8 6
22 11 4
22 12 8
22 13 9
22 15 6
22 16 7
22 19 1
23 0 2
23 1 7
23 4 3
23 5 1
23 9 9
23 12 1
23 17 9
23 19 5
23 20 1
23 22 6
24 5 3
24 6 5
24 7 7
24 8 6
24 9 7
24 10 8
24 16 1
24 17 2
24 18 9
24 21 1
24 22 8
25 0 3
25 4 6
25 6 6
25 9 7
25 11 9
25 12 8
25 13 9
25 18 7
25 22 9
25 23 8
26 3 1
26 4 5
26 5 5
26 6 8
26 7 3
26 8 6
26 10 6
26 12 4
26 14 4
26 15 2
26 16 4
26 17 4
26 19 7
26 22 3
26 24 2
27 0 4
27 2 5
27 7 1
27 8 8
27 11 2
27 14 4
27 15 1
27 16 5
27 19 5
27 22 2
27 23 4
28 0 2
28 3 8
28 4 4
28 5 4
28 6 7
28 9 1
28 10 7
28 14 1
28 15 1
28 16 3
28 17 7
28 18 5
28 21 1
28 22 5
28 24 7
28 25 2
29 1 3
29 2 2
29 4 8
29 5 8
29 6 9
29 7 3
29 10 1
29 11 3
29 12 2
29 13 5
29 14 3
29 17 5
29 19 3
29 20 2
29 23 2
29 24 5
29 26 8
29 27 9
30 3 8
30 8 3
30 12 7
30 13 5
30 16 9
30 19 3
30 20 1
30 22 7
30 23 1
30 25 9
30 27 7
30 28 4
31 2 7
31 3 6
31 4 1
31 6 1
31 8 3
31 9 5
31 11 2
31 12 6
31 13 9
31 15 6
31 17 5
31 20 1
31 23 4
31 24 3
31 26 2
31 27 2
31 28 3
32 0 8
32 1 9
32 2 3
32 5 2
32 6 9
32 7 2
32 9 6
32 12 4
32 16 4
32 17 2
32 18 7
32 20 2
32 21 6
32 22 1
32 24 1
32 27 4
32 28 6
32 30 9
33 0 5
33 2 3
33 3 4
33 7 9
33 8 1
33 10 6
33 13 3
33 16 3
33 19 4
33 22 8
33 23 6
33 26 2
33 27 5
33 28 4
34 4 5
34 8 1
34 9 7
34 12 8
34 17 8
34 18 7
34 20 9
34 22 7
34 24 8
34 26 6
34 27 4
34 28 2
34 29 9
35 1 7
35 2 3
35 4 9
35 5 6
35 6 8
35 8 3
35 9 4
35 19 2
35 20 8
35 21 9
35 22 8
35 24 2
35 26 7
35 32 6
35 34 8
36 0 8
36 7 5
36 8 2
36 9 1
36 10 5
36 12 1
36 16 2
36 18 8
36 19 6
36 22 9
36 24 6
36 26 3
36 27 9
36 28 8
36 29 2
36 30 9
36 32 3
37 1 2
37 3 5
37 4 5
37 6 3
37 10 5
37 11 9
37 13 9
37 14 3
37 15 3
37 16 5
37 23 7
37 26 8
37 27 2
37 29 7
37 30 1
37 31 9
37 34 2
37 35 9
37 36 7
38 0 1
38 1 7
38 3 4
38 5 4
38 7 8
38 10 8
38 12 3
38 13 8
38 17 4
38 19 2
38 21 3
38 22 4
38 26 5
38 27 5
38 28 6
38 30 4
38 31 3
38 37 6
39 6 6
39 9 2
39 12 5
39 13 1
39 14 9
39 15 2
39 18 8
39 19 7
39 21 8
39 22 5
39 23 8
39 25 3
39 26 6
39 27 7
39 28 3
39 29 7
39 36 4
39 38 4
40 0 5
40 1 9
40 2 5
40 4 9
40 8 6
40 9 9
40 10 6
40 11 5
40 12 7
40 13 5
40 14 8
40 16 8
40 17 1
40 18 3
40 21 4
40 22 8
40 23 2
40 27 9
40 28 9
40 29 8
40 30 3
40 32 5
40 33 4
40 37 1
40 38 8
41 0 5
41 6 2
41 7 2
41 9 5
41 12 2
41 16 4
41 17 7
41 18 6
41 19 6
41 20 3
41 24 4
41 31 9
41 33 1
41 35 5
41 36 7
41 40 3
42 1 5
42 4 5
42 7 7
42 9 5
42 11 3
42 12 4
42 22 4
42 23 9
42 24 9
42 25 8
42 29 7
42 32 6
42 34 2
42 35 7
42 36 8
42 38 4
42 39 5
43 0 3
43 2 9
43 3 3
43 5 3
43 12 6
43 15 4
43 17 3
43 19 7
43 20 5
43 25 7
43 29 4
43 30 7
43 31 6
43 32 3
43 33 1
43 35 3
43 38 6
43 39 3
43 41 1
44 0 7
44 2 1
44 3 3
44 4 4
44 7 1
44 8 9
44 10 8
44 11 9
44 12 5
44 13 4
44 15 6
44 16 8
44 17 8
44 18 4
44 19 3
44 20 3
44 21 6
44 25 1
44 27 8
44 28 6
44 35 6
44 37 3
44 40 8
44 41 1
44 42 6
45 0 1
45 1 2
45 5 7
45 6 5
45 9 3
45 12 6
45 14 3
45 17 1
45 18 4
45 19 4
45 20 5
45 24 5
45 26 2
45 32 1
45 33 3
45 37 3
45 39 9
45 41 6
45 43 2
46 4 8
46 7 6
46 9 6
46 13 4
46 14 9
46 15 4
46 17 3
46 19 3
46 22 2
46 23 2
46 24 3
46 25 4
46 26 9
46 28 8
46 29 1
46 33 6
46 37 7
46 38 6
46 39 2
47 0 2
47 1 6
47 2 9
47 3 6
47 4 4
47 6 1
47 9 3
47 10 2
47 11 3
47 12 7
47 14 9
47 15 2
47 16 5
47 17 2
47 21 9
47 22 6
47 23 4
47 26 1
47 31 5
47 32 4
47 33 7
47 35 6
47 37 6
47 39 3
47 40 3
47 41 9
47 44 6
47 45 8
47 46 9
48 0 6
48 1 9
48 2 2
48 3 6
48 4 2
48 6 3
48 7 8
48 9 9
48 10 1
48 12 2
48 14 1
48 15 7
48 18 9
48 20 4
48 22 7
48 23 2
48 24 7
48 27 8
48 28 7
48 30 6
48 31 1
48 32 9
48 33 5
48 34 7
48 35 6
48 38 1
48 41 7
48 42 4
48 44 1
48 45 2
48 46 8
49 0 9
49 2 6
49 6 1
49 7 6
49 9 4
49 10 1
49 11 1
49 12 4
49 14 8
49 15 3
49 16 7
49 18 7
49 22 9
49 25 5
49 28 4
49 31 9
49 32 2
49 33 7
49 35 7
49 36 8
49 38 4
49 39 4
49 42 5
49 44 9
49 46 3
49 48 2
50 1 4
50 3 1
50 6 6
50 8 4
50 9 2
50 11 4
50 14 8
50 15 7
50 16 6
50 18 6
50 19 9
50 21 3
50 22 2
50 23 1
50 25 5
50 26 8
50 27 8
50 30 4
50 34 2
50 35 9
50 36 2
50 39 3
50 42 3
50 45 1
50 46 8
50 47 4
50 49 6
51 0 5
51 2 8
51 3 6
51 8 6
51 9 7
51 10 5
51 11 6
51 12 9
51 17 2
51 19 2
51 20 5
51 21 7
51 22 4
51 27 8
51 28 9
51 30 5
51 31 7
51 32 7
51 33 4
51 34 1
51 35 8
51 36 1
51 38 7
51 40 2
51 42 6
51 43 8
51 47 5
51 49 7
51 50 5
52 0 1
52 2 2
52 5 7
52 6 1
52 8 6
52 10 3
52 12 4
52 13 4
52 17 1
52 19 6
52 22 3
52 25 2
52 26 5
52 29 3
52 30 8
52 31 2
52 32 5
52 34 6
52 37 4
52 38 5
52 39 7
52 41 9
52 43 5
52 51 1
53 2 4
53 4 5
53 5 6
53 6 4
53 7 9
53 9 7
53 10 6
53 13 1
53 14 2
53 20 5
53 21 1
53 23 7
53 24 1
53 25 8
53 26 9
53 28 6
53 32 3
53 33 6
53 34 7
53 35 6
53 37 5
53 38 3
53 39 5
53 40 7
53 44 2
53 45 1
53 49 3
54 0 9
54 2 2
54 3 9
54 13 6
54 17 5
54 18 1
54 19 7
54 21 7
54 24 4
54 26 9
54 29 7
54 31 9
54 32 5
54 33 4
54 34 3
54 35 8
54 43 7
54 44 3
54 46 3
54 48 4
54 52 9
55 1 2
55 3 7
55 4 2
55 5 5
55 11 6
55 12 6
55 13 9
55 14 1
55 16 4
55 17 5
55 19 3
55 23 8
55 25 6
55 28 6
55 29 4
55 31 7
55 32 1
55 33 1
55 34 4
55 36 6
55 37 8
55 40 2
55 46 8
55 47 4
55 53 5
56 0 2
56 1 5
56 2 4
56 5 9
56 6 7
56 7 1
56 8 9
56 12 7
56 13 5
56 14 9
56 18 4
56 19 4
56 20 2
56 22 2
56 25 4
56 27 3
56 28 3
56 30 8
56 32 4
56 33 9
56 36 9
56 42 2
56 44 8
56 45 4
56 47 6
56 48 8
56 49 6
56 50 6
56 54 8
56 55 5
57 2 6
57 4 5
57 7 7
57 8 5
57 9 4
57 13 1
57 14 2
57 15 2
57 17 7
57 20 4
57 22 2
57 25 1
57 26 5
57 27 3
57 28 8
57 30 2
57 31 1
57 32 9
57 34 3
57 35 3
57 38 8
57 43 8
57 44 4
57 49 9
57 50 3
57 53 5
57 54 8
57 56 5
58 4 6
58 5 9
58 8 9
58 11 6
58 13 4
58 15 9
58 18 2
58 19 8
58 20 3
58 23 9
58 24 2
58 25 7
58 26 7
58 27 9
58 28 9
58 29 5
58 30 6
58 31 7
58 32 5
58 33 8
58 38 3
58 39 4
58 40 1
58 41 7
58 42 9
58 43 8
58 47 6
58 48 4
58 50 8
58 51 6
58 53 5
58 57 6
59 1 7
59 3 1
59 7 1
59 9 6
59 10 2
59 11 1
59 13 4
59 14 7
59 15 5
59 16 4
59 18 4
59 19 8
59 22 6
59 23 5
59 26 1
59 27 1
59 30 6
59 34 4
59 36 9
59 39 7
59 40 3
59 42 3
59 43 4
59 44 3
59 45 6
59 47 1
59 48 9
59 49 2
59 50 3
59 52 5
59 54 4
59 57 5
